; benchmark generated from python API
(set-info :status unknown)
(declare-fun x_days () (_ BitVec 32))
(declare-fun y_days () (_ BitVec 32))
(assert
 (bvsle (_ bv4294930771 32) x_days))
(assert
 (bvsge (_ bv36523 32) x_days))
(assert
 (bvsle (_ bv4294930771 32) y_days))
(assert
 (bvsge (_ bv36523 32) y_days))
(assert
 (= x_days (_ bv7275 32)))
(assert
 (= y_days (_ bv6910 32)))
(assert
 (let ((?x1482 (bvadd x_days (_ bv730179 32))))
 (let ((?x1916 (bvsmod ?x1482 (_ bv146097 32))))
 (let ((?x3485 (bvsdiv ?x1916 (_ bv36524 32))))
 (let ((?x2230 (ite (bvsle (_ bv4 32) ?x3485) (_ bv3 32) ?x3485)))
 (let ((?x3254 (bvsub ?x1916 (bvmul ?x2230 (_ bv36524 32)))))
 (let ((?x4510 (bvsmod ?x3254 (_ bv1461 32))))
 (let ((?x1298 (bvsdiv ?x4510 (_ bv365 32))))
 (let ((?x5687 (ite (bvsle (_ bv4 32) ?x1298) (_ bv3 32) ?x1298)))
 (let ((?x25824 (bvadd (bvadd (bvmul (bvsdiv ?x1482 (_ bv146097 32)) (_ bv400 32)) (bvmul ?x2230 (_ bv100 32))) (bvmul (bvsdiv ?x3254 (_ bv1461 32)) (_ bv4 32)))))
 (let ((?x4295 (bvadd (bvadd ?x25824 ?x5687) (_ bv1 32))))
 (let (($x3241 (or (and (= (bvsmod ?x4295 (_ bv4 32)) (_ bv0 32)) (and (distinct (bvsmod ?x4295 (_ bv100 32)) (_ bv0 32)) true)) (= (bvsmod ?x4295 (_ bv400 32)) (_ bv0 32)))))
 (let ((?x4104 (bvsub ?x4510 (bvmul ?x5687 (_ bv365 32)))))
 (let ((?x2912 (ite $x3241 (_ bv31 32) (_ bv31 32))))
 (let (($x588 (bvsge ?x4104 ?x2912)))
 (let ((?x4396 (ite $x588 (bvadd (bvsub ?x4104 ?x2912) (_ bv1 32)) (bvadd (bvsub ?x4104 (ite $x3241 (_ bv0 32) (_ bv0 32))) (_ bv1 32)))))
 (let ((?x4722 (ite $x3241 (_ bv60 32) (_ bv59 32))))
 (let (($x2419 (bvsge ?x4104 ?x4722)))
 (let ((?x3793 (ite $x3241 (_ bv91 32) (_ bv90 32))))
 (let (($x1271 (bvsge ?x4104 ?x3793)))
 (let ((?x5741 (ite $x1271 (bvadd (bvsub ?x4104 ?x3793) (_ bv1 32)) (ite $x2419 (bvadd (bvsub ?x4104 ?x4722) (_ bv1 32)) ?x4396))))
 (let ((?x3306 (ite $x3241 (_ bv121 32) (_ bv120 32))))
 (let (($x4113 (bvsge ?x4104 ?x3306)))
 (let ((?x593 (ite $x3241 (_ bv152 32) (_ bv151 32))))
 (let (($x2099 (bvsge ?x4104 ?x593)))
 (let ((?x4827 (ite $x2099 (bvadd (bvsub ?x4104 ?x593) (_ bv1 32)) (ite $x4113 (bvadd (bvsub ?x4104 ?x3306) (_ bv1 32)) ?x5741))))
 (let ((?x4535 (ite $x3241 (_ bv182 32) (_ bv181 32))))
 (let (($x975 (bvsge ?x4104 ?x4535)))
 (let ((?x713 (ite $x3241 (_ bv213 32) (_ bv212 32))))
 (let (($x754 (bvsge ?x4104 ?x713)))
 (let ((?x1045 (ite $x754 (bvadd (bvsub ?x4104 ?x713) (_ bv1 32)) (ite $x975 (bvadd (bvsub ?x4104 ?x4535) (_ bv1 32)) ?x4827))))
 (let ((?x2554 (ite $x3241 (_ bv244 32) (_ bv243 32))))
 (let (($x619 (bvsge ?x4104 ?x2554)))
 (let ((?x5324 (ite $x3241 (_ bv274 32) (_ bv273 32))))
 (let (($x3687 (bvsge ?x4104 ?x5324)))
 (let ((?x4606 (ite $x3687 (bvadd (bvsub ?x4104 ?x5324) (_ bv1 32)) (ite $x619 (bvadd (bvsub ?x4104 ?x2554) (_ bv1 32)) ?x1045))))
 (let ((?x909 (ite $x3241 (_ bv305 32) (_ bv304 32))))
 (let (($x956 (bvsge ?x4104 ?x909)))
 (let ((?x2423 (ite $x3241 (_ bv335 32) (_ bv334 32))))
 (let (($x3698 (bvsge ?x4104 ?x2423)))
 (let ((?x3012 (ite $x3698 (bvadd (bvsub ?x4104 ?x2423) (_ bv1 32)) (ite $x956 (bvadd (bvsub ?x4104 ?x909) (_ bv1 32)) ?x4606))))
 (let ((?x24184 (bvadd (bvmul (_ bv0 32) (_ bv12 32)) (_ bv1 32))))
 (let ((?x1429 (ite $x2099 (_ bv6 32) (ite $x4113 (_ bv5 32) (ite $x1271 (_ bv4 32) (ite $x2419 (_ bv3 32) (ite $x588 (_ bv2 32) (_ bv1 32))))))))
 (let ((?x2268 (ite $x956 (_ bv11 32) (ite $x3687 (_ bv10 32) (ite $x619 (_ bv9 32) (ite $x754 (_ bv8 32) (ite $x975 (_ bv7 32) ?x1429)))))))
 (let ((?x2457 (bvadd (ite $x3698 (_ bv12 32) ?x2268) ?x24184)))
 (let ((?x3722 (bvsub (ite (bvuge ?x2457 (_ bv2147483648 32)) (bvsub ?x2457 (_ bv0 32)) ?x2457) (_ bv1 32))))
 (let ((?x6163 (bvsmod ?x3722 (_ bv12 32))))
 (let ((?x4605 (bvadd ?x6163 (_ bv1 32))))
 (let ((?x4515 (ite (or (= ?x4605 (_ bv4 32)) (= ?x4605 (_ bv6 32)) (= ?x4605 (_ bv9 32)) (= ?x4605 (_ bv11 32))) (_ bv30 32) (_ bv31 32))))
 (let ((?x3192 (bvsdiv ?x3722 (_ bv12 32))))
 (let ((?x2411 (ite (and (bvuge ?x3722 (_ bv2147483648 32)) (and (distinct (_ bv0 32) ?x6163) true)) (bvsub ?x3192 (_ bv1 32)) ?x3192)))
 (let ((?x4212 (bvadd ?x4295 (bvadd (_ bv0 32) ?x2411))))
 (let (($x3565 (or (and (= (bvsmod ?x4212 (_ bv4 32)) (_ bv0 32)) (and (distinct (bvsmod ?x4212 (_ bv100 32)) (_ bv0 32)) true)) (= (bvsmod ?x4212 (_ bv400 32)) (_ bv0 32)))))
 (let ((?x2458 (ite (= ?x4605 (_ bv2 32)) (ite $x3565 (_ bv29 32) (_ bv28 32)) ?x4515)))
 (let ((?x3345 (ite (bvsgt (_ bv1 32) ?x3012) (_ bv1 32) (ite (bvsgt ?x3012 ?x2458) ?x2458 ?x3012))))
 (let ((?x6104 (ite (bvsgt (_ bv1 32) ?x3345) (_ bv1 32) (ite (bvsgt ?x3345 ?x2458) ?x2458 ?x3345))))
 (let ((?x4615 (ite (= (_ bv2 32) ?x4605) (ite $x3565 (_ bv31 32) (_ bv31 32)) (ite (= (_ bv1 32) ?x4605) (ite $x3565 (_ bv0 32) (_ bv0 32)) (_ bv0 32)))))
 (let ((?x52345 (ite (= (_ bv4 32) ?x4605) (ite $x3565 (_ bv91 32) (_ bv90 32)) (ite (= (_ bv3 32) ?x4605) (ite $x3565 (_ bv60 32) (_ bv59 32)) ?x4615))))
 (let ((?x4992 (ite (= (_ bv6 32) ?x4605) (ite $x3565 (_ bv152 32) (_ bv151 32)) (ite (= (_ bv5 32) ?x4605) (ite $x3565 (_ bv121 32) (_ bv120 32)) ?x52345))))
 (let ((?x4499 (ite (= (_ bv8 32) ?x4605) (ite $x3565 (_ bv213 32) (_ bv212 32)) (ite (= (_ bv7 32) ?x4605) (ite $x3565 (_ bv182 32) (_ bv181 32)) ?x4992))))
 (let ((?x1252 (ite (= (_ bv10 32) ?x4605) (ite $x3565 (_ bv274 32) (_ bv273 32)) (ite (= (_ bv9 32) ?x4605) (ite $x3565 (_ bv244 32) (_ bv243 32)) ?x4499))))
 (let ((?x1176 (ite (= (_ bv12 32) ?x4605) (ite $x3565 (_ bv335 32) (_ bv334 32)) (ite (= (_ bv11 32) ?x4605) (ite $x3565 (_ bv305 32) (_ bv304 32)) ?x1252))))
 (let ((?x5401 (bvadd (bvmul (_ bv365 32) (bvsub ?x4212 (_ bv1 32))) (bvsdiv (bvsub ?x4212 (_ bv1 32)) (_ bv4 32)))))
 (let ((?x453 (bvadd (bvsub ?x5401 (bvsdiv (bvsub ?x4212 (_ bv1 32)) (_ bv100 32))) (bvsdiv (bvsub ?x4212 (_ bv1 32)) (_ bv400 32)))))
 (let ((?x405 (bvadd (bvadd (bvsub (bvadd (bvadd ?x453 ?x1176) (bvsub ?x6104 (_ bv1 32))) (_ bv730179 32)) (_ bv0 32)) (_ bv730179 32))))
 (let ((?x2168 (bvsmod ?x405 (_ bv146097 32))))
 (let ((?x4118 (bvsdiv ?x2168 (_ bv36524 32))))
 (let ((?x1819 (ite (bvsle (_ bv4 32) ?x4118) (_ bv3 32) ?x4118)))
 (let ((?x2581 (bvsub ?x2168 (bvmul ?x1819 (_ bv36524 32)))))
 (let ((?x1546 (bvsmod ?x2581 (_ bv1461 32))))
 (let ((?x39182 (bvsdiv ?x1546 (_ bv365 32))))
 (let ((?x3695 (ite (bvsle (_ bv4 32) ?x39182) (_ bv3 32) ?x39182)))
 (let ((?x6743 (bvadd (bvadd (bvmul (bvsdiv ?x405 (_ bv146097 32)) (_ bv400 32)) (bvmul ?x1819 (_ bv100 32))) (bvmul (bvsdiv ?x2581 (_ bv1461 32)) (_ bv4 32)))))
 (let ((?x3362 (bvadd (bvadd ?x6743 ?x3695) (_ bv1 32))))
 (let (($x3190 (or (and (= (bvsmod ?x3362 (_ bv4 32)) (_ bv0 32)) (and (distinct (bvsmod ?x3362 (_ bv100 32)) (_ bv0 32)) true)) (= (bvsmod ?x3362 (_ bv400 32)) (_ bv0 32)))))
 (let ((?x4467 (bvsub ?x1546 (bvmul ?x3695 (_ bv365 32)))))
 (let ((?x3992 (ite $x3190 (_ bv31 32) (_ bv31 32))))
 (let (($x514 (bvsge ?x4467 ?x3992)))
 (let ((?x38768 (ite $x514 (bvadd (bvsub ?x4467 ?x3992) (_ bv1 32)) (bvadd (bvsub ?x4467 (ite $x3190 (_ bv0 32) (_ bv0 32))) (_ bv1 32)))))
 (let ((?x25768 (ite $x3190 (_ bv60 32) (_ bv59 32))))
 (let (($x4108 (bvsge ?x4467 ?x25768)))
 (let ((?x1988 (ite $x3190 (_ bv91 32) (_ bv90 32))))
 (let (($x3950 (bvsge ?x4467 ?x1988)))
 (let ((?x29393 (ite $x3950 (bvadd (bvsub ?x4467 ?x1988) (_ bv1 32)) (ite $x4108 (bvadd (bvsub ?x4467 ?x25768) (_ bv1 32)) ?x38768))))
 (let ((?x4089 (ite $x3190 (_ bv121 32) (_ bv120 32))))
 (let (($x1268 (bvsge ?x4467 ?x4089)))
 (let ((?x6717 (ite $x3190 (_ bv152 32) (_ bv151 32))))
 (let (($x3167 (bvsge ?x4467 ?x6717)))
 (let ((?x40155 (ite $x3167 (bvadd (bvsub ?x4467 ?x6717) (_ bv1 32)) (ite $x1268 (bvadd (bvsub ?x4467 ?x4089) (_ bv1 32)) ?x29393))))
 (let ((?x3359 (ite $x3190 (_ bv182 32) (_ bv181 32))))
 (let (($x2218 (bvsge ?x4467 ?x3359)))
 (let ((?x3249 (ite $x3190 (_ bv213 32) (_ bv212 32))))
 (let (($x1994 (bvsge ?x4467 ?x3249)))
 (let ((?x2382 (ite $x1994 (bvadd (bvsub ?x4467 ?x3249) (_ bv1 32)) (ite $x2218 (bvadd (bvsub ?x4467 ?x3359) (_ bv1 32)) ?x40155))))
 (let ((?x6278 (ite $x3190 (_ bv244 32) (_ bv243 32))))
 (let (($x2355 (bvsge ?x4467 ?x6278)))
 (let ((?x3829 (ite $x3190 (_ bv274 32) (_ bv273 32))))
 (let (($x3601 (bvsge ?x4467 ?x3829)))
 (let ((?x39091 (ite $x3601 (bvadd (bvsub ?x4467 ?x3829) (_ bv1 32)) (ite $x2355 (bvadd (bvsub ?x4467 ?x6278) (_ bv1 32)) ?x2382))))
 (let ((?x6671 (ite $x3190 (_ bv305 32) (_ bv304 32))))
 (let (($x3493 (bvsge ?x4467 ?x6671)))
 (let ((?x830 (ite $x3190 (_ bv335 32) (_ bv334 32))))
 (let (($x5590 (bvsge ?x4467 ?x830)))
 (let ((?x39554 (ite $x5590 (bvadd (bvsub ?x4467 ?x830) (_ bv1 32)) (ite $x3493 (bvadd (bvsub ?x4467 ?x6671) (_ bv1 32)) ?x39091))))
 (let (($x65417 (= (_ bv0 32) (_ bv0 32))))
 (let (($x5051 (and (= (bvsmod (ite $x65417 ?x4212 ?x3362) (_ bv4 32)) (_ bv0 32)) (and (distinct (bvsmod (ite $x65417 ?x4212 ?x3362) (_ bv100 32)) (_ bv0 32)) true))))
 (let (($x1700 (or $x5051 (= (bvsmod (ite $x65417 ?x4212 ?x3362) (_ bv400 32)) (_ bv0 32)))))
 (let ((?x2649 (ite $x3167 (_ bv6 32) (ite $x1268 (_ bv5 32) (ite $x3950 (_ bv4 32) (ite $x4108 (_ bv3 32) (ite $x514 (_ bv2 32) (_ bv1 32))))))))
 (let ((?x39123 (ite $x3493 (_ bv11 32) (ite $x3601 (_ bv10 32) (ite $x2355 (_ bv9 32) (ite $x1994 (_ bv8 32) (ite $x2218 (_ bv7 32) ?x2649)))))))
 (let ((?x21173 (ite $x65417 ?x4605 (ite $x5590 (_ bv12 32) ?x39123))))
 (let ((?x2022 (ite (= (_ bv2 32) ?x21173) (ite $x1700 (_ bv31 32) (_ bv31 32)) (ite (= (_ bv1 32) ?x21173) (ite $x1700 (_ bv0 32) (_ bv0 32)) (_ bv0 32)))))
 (let ((?x4133 (ite (= (_ bv4 32) ?x21173) (ite $x1700 (_ bv91 32) (_ bv90 32)) (ite (= (_ bv3 32) ?x21173) (ite $x1700 (_ bv60 32) (_ bv59 32)) ?x2022))))
 (let ((?x1359 (ite (= (_ bv6 32) ?x21173) (ite $x1700 (_ bv152 32) (_ bv151 32)) (ite (= (_ bv5 32) ?x21173) (ite $x1700 (_ bv121 32) (_ bv120 32)) ?x4133))))
 (let ((?x2372 (ite (= (_ bv8 32) ?x21173) (ite $x1700 (_ bv213 32) (_ bv212 32)) (ite (= (_ bv7 32) ?x21173) (ite $x1700 (_ bv182 32) (_ bv181 32)) ?x1359))))
 (let ((?x4461 (ite (= (_ bv10 32) ?x21173) (ite $x1700 (_ bv274 32) (_ bv273 32)) (ite (= (_ bv9 32) ?x21173) (ite $x1700 (_ bv244 32) (_ bv243 32)) ?x2372))))
 (let ((?x28615 (ite (= (_ bv12 32) ?x21173) (ite $x1700 (_ bv335 32) (_ bv334 32)) (ite (= (_ bv11 32) ?x21173) (ite $x1700 (_ bv305 32) (_ bv304 32)) ?x4461))))
 (let ((?x4565 (bvadd (bvmul (_ bv365 32) (bvsub (ite $x65417 ?x4212 ?x3362) (_ bv1 32))) (bvsdiv (bvsub (ite $x65417 ?x4212 ?x3362) (_ bv1 32)) (_ bv4 32)))))
 (let ((?x3244 (bvadd (bvsub ?x4565 (bvsdiv (bvsub (ite $x65417 ?x4212 ?x3362) (_ bv1 32)) (_ bv100 32))) (bvsdiv (bvsub (ite $x65417 ?x4212 ?x3362) (_ bv1 32)) (_ bv400 32)))))
 (let ((?x1328 (bvsub (bvadd (bvadd ?x3244 ?x28615) (bvsub (ite $x65417 ?x6104 ?x39554) (_ bv1 32))) (_ bv730179 32))))
 (= ?x1328 (_ bv7304 32)))))))))))))))))))))))))))))))))))))))))))))))))))))))))))))))))))))))))))))))))))))))))))))))))))))))))))))))))))))))))
(assert
 (let ((?x2901 (bvadd y_days (_ bv730179 32))))
(let ((?x21288 (bvsmod ?x2901 (_ bv146097 32))))
(let ((?x16244 (bvsdiv ?x21288 (_ bv36524 32))))
(let ((?x29337 (ite (bvsle (_ bv4 32) ?x16244) (_ bv3 32) ?x16244)))
(let ((?x21538 (bvsub ?x21288 (bvmul ?x29337 (_ bv36524 32)))))
(let ((?x31976 (bvsmod ?x21538 (_ bv1461 32))))
(let ((?x21545 (bvsdiv ?x31976 (_ bv365 32))))
(let ((?x32086 (ite (bvsle (_ bv4 32) ?x21545) (_ bv3 32) ?x21545)))
(let ((?x29291 (bvadd (bvadd (bvmul (bvsdiv ?x2901 (_ bv146097 32)) (_ bv400 32)) (bvmul ?x29337 (_ bv100 32))) (bvmul (bvsdiv ?x21538 (_ bv1461 32)) (_ bv4 32)))))
(let ((?x4204 (bvadd (bvadd ?x29291 ?x32086) (_ bv1 32))))
(let (($x3360 (or (and (= (bvsmod ?x4204 (_ bv4 32)) (_ bv0 32)) (and (distinct (bvsmod ?x4204 (_ bv100 32)) (_ bv0 32)) true)) (= (bvsmod ?x4204 (_ bv400 32)) (_ bv0 32)))))
(let ((?x21842 (bvsub ?x31976 (bvmul ?x32086 (_ bv365 32)))))
(let ((?x1542 (ite $x3360 (_ bv31 32) (_ bv31 32))))
(let (($x27889 (bvsge ?x21842 ?x1542)))
(let ((?x6343 (ite $x27889 (bvadd (bvsub ?x21842 ?x1542) (_ bv1 32)) (bvadd (bvsub ?x21842 (ite $x3360 (_ bv0 32) (_ bv0 32))) (_ bv1 32)))))
(let ((?x5778 (ite $x3360 (_ bv60 32) (_ bv59 32))))
(let (($x4420 (bvsge ?x21842 ?x5778)))
(let ((?x2274 (ite $x3360 (_ bv91 32) (_ bv90 32))))
(let (($x32351 (bvsge ?x21842 ?x2274)))
(let ((?x22194 (ite $x32351 (bvadd (bvsub ?x21842 ?x2274) (_ bv1 32)) (ite $x4420 (bvadd (bvsub ?x21842 ?x5778) (_ bv1 32)) ?x6343))))
(let ((?x21632 (ite $x3360 (_ bv121 32) (_ bv120 32))))
(let (($x22110 (bvsge ?x21842 ?x21632)))
(let ((?x32452 (ite $x3360 (_ bv152 32) (_ bv151 32))))
(let (($x32213 (bvsge ?x21842 ?x32452)))
(let ((?x4206 (ite $x32213 (bvadd (bvsub ?x21842 ?x32452) (_ bv1 32)) (ite $x22110 (bvadd (bvsub ?x21842 ?x21632) (_ bv1 32)) ?x22194))))
(let ((?x21371 (ite $x3360 (_ bv182 32) (_ bv181 32))))
(let (($x31971 (bvsge ?x21842 ?x21371)))
(let ((?x34171 (ite $x3360 (_ bv213 32) (_ bv212 32))))
(let (($x31573 (bvsge ?x21842 ?x34171)))
(let ((?x21251 (ite $x31573 (bvadd (bvsub ?x21842 ?x34171) (_ bv1 32)) (ite $x31971 (bvadd (bvsub ?x21842 ?x21371) (_ bv1 32)) ?x4206))))
(let ((?x4445 (ite $x3360 (_ bv244 32) (_ bv243 32))))
(let (($x25751 (bvsge ?x21842 ?x4445)))
(let ((?x28665 (ite $x3360 (_ bv274 32) (_ bv273 32))))
(let (($x2790 (bvsge ?x21842 ?x28665)))
(let ((?x16830 (ite $x2790 (bvadd (bvsub ?x21842 ?x28665) (_ bv1 32)) (ite $x25751 (bvadd (bvsub ?x21842 ?x4445) (_ bv1 32)) ?x21251))))
(let ((?x20646 (ite $x3360 (_ bv305 32) (_ bv304 32))))
(let (($x42792 (bvsge ?x21842 ?x20646)))
(let ((?x2691 (ite $x3360 (_ bv335 32) (_ bv334 32))))
(let (($x2067 (bvsge ?x21842 ?x2691)))
(let ((?x42770 (ite $x2067 (bvadd (bvsub ?x21842 ?x2691) (_ bv1 32)) (ite $x42792 (bvadd (bvsub ?x21842 ?x20646) (_ bv1 32)) ?x16830))))
(let ((?x24184 (bvadd (bvmul (_ bv0 32) (_ bv12 32)) (_ bv1 32))))
(let ((?x21657 (ite $x32213 (_ bv6 32) (ite $x22110 (_ bv5 32) (ite $x32351 (_ bv4 32) (ite $x4420 (_ bv3 32) (ite $x27889 (_ bv2 32) (_ bv1 32))))))))
(let ((?x33976 (ite $x42792 (_ bv11 32) (ite $x2790 (_ bv10 32) (ite $x25751 (_ bv9 32) (ite $x31573 (_ bv8 32) (ite $x31971 (_ bv7 32) ?x21657)))))))
(let ((?x21497 (bvadd (ite $x2067 (_ bv12 32) ?x33976) ?x24184)))
(let ((?x34535 (bvsub (ite (bvuge ?x21497 (_ bv2147483648 32)) (bvsub ?x21497 (_ bv0 32)) ?x21497) (_ bv1 32))))
(let ((?x4287 (bvsmod ?x34535 (_ bv12 32))))
(let ((?x1995 (bvadd ?x4287 (_ bv1 32))))
(let ((?x20850 (ite (or (= ?x1995 (_ bv4 32)) (= ?x1995 (_ bv6 32)) (= ?x1995 (_ bv9 32)) (= ?x1995 (_ bv11 32))) (_ bv30 32) (_ bv31 32))))
(let ((?x935 (bvsdiv ?x34535 (_ bv12 32))))
(let ((?x2163 (ite (and (bvuge ?x34535 (_ bv2147483648 32)) (and (distinct (_ bv0 32) ?x4287) true)) (bvsub ?x935 (_ bv1 32)) ?x935)))
(let ((?x6342 (bvadd ?x4204 (bvadd (_ bv0 32) ?x2163))))
(let (($x21310 (or (and (= (bvsmod ?x6342 (_ bv4 32)) (_ bv0 32)) (and (distinct (bvsmod ?x6342 (_ bv100 32)) (_ bv0 32)) true)) (= (bvsmod ?x6342 (_ bv400 32)) (_ bv0 32)))))
(let ((?x16785 (ite (= ?x1995 (_ bv2 32)) (ite $x21310 (_ bv29 32) (_ bv28 32)) ?x20850)))
(let ((?x6631 (ite (bvsgt (_ bv1 32) ?x42770) (_ bv1 32) (ite (bvsgt ?x42770 ?x16785) ?x16785 ?x42770))))
(let ((?x6380 (ite (bvsgt (_ bv1 32) ?x6631) (_ bv1 32) (ite (bvsgt ?x6631 ?x16785) ?x16785 ?x6631))))
(let ((?x24066 (ite (= (_ bv2 32) ?x1995) (ite $x21310 (_ bv31 32) (_ bv31 32)) (ite (= (_ bv1 32) ?x1995) (ite $x21310 (_ bv0 32) (_ bv0 32)) (_ bv0 32)))))
(let ((?x20858 (ite (= (_ bv4 32) ?x1995) (ite $x21310 (_ bv91 32) (_ bv90 32)) (ite (= (_ bv3 32) ?x1995) (ite $x21310 (_ bv60 32) (_ bv59 32)) ?x24066))))
(let ((?x34713 (ite (= (_ bv6 32) ?x1995) (ite $x21310 (_ bv152 32) (_ bv151 32)) (ite (= (_ bv5 32) ?x1995) (ite $x21310 (_ bv121 32) (_ bv120 32)) ?x20858))))
(let ((?x22297 (ite (= (_ bv8 32) ?x1995) (ite $x21310 (_ bv213 32) (_ bv212 32)) (ite (= (_ bv7 32) ?x1995) (ite $x21310 (_ bv182 32) (_ bv181 32)) ?x34713))))
(let ((?x2846 (ite (= (_ bv10 32) ?x1995) (ite $x21310 (_ bv274 32) (_ bv273 32)) (ite (= (_ bv9 32) ?x1995) (ite $x21310 (_ bv244 32) (_ bv243 32)) ?x22297))))
(let ((?x3055 (ite (= (_ bv12 32) ?x1995) (ite $x21310 (_ bv335 32) (_ bv334 32)) (ite (= (_ bv11 32) ?x1995) (ite $x21310 (_ bv305 32) (_ bv304 32)) ?x2846))))
(let ((?x15774 (bvadd (bvmul (_ bv365 32) (bvsub ?x6342 (_ bv1 32))) (bvsdiv (bvsub ?x6342 (_ bv1 32)) (_ bv4 32)))))
(let ((?x45413 (bvadd (bvsub ?x15774 (bvsdiv (bvsub ?x6342 (_ bv1 32)) (_ bv100 32))) (bvsdiv (bvsub ?x6342 (_ bv1 32)) (_ bv400 32)))))
(let ((?x2312 (bvadd (bvadd (bvsub (bvadd (bvadd ?x45413 ?x3055) (bvsub ?x6380 (_ bv1 32))) (_ bv730179 32)) (_ bv0 32)) (_ bv730179 32))))
(let ((?x24729 (bvsmod ?x2312 (_ bv146097 32))))
(let ((?x22104 (bvsdiv ?x24729 (_ bv36524 32))))
(let ((?x24617 (ite (bvsle (_ bv4 32) ?x22104) (_ bv3 32) ?x22104)))
(let ((?x28917 (bvsub ?x24729 (bvmul ?x24617 (_ bv36524 32)))))
(let ((?x692 (bvsmod ?x28917 (_ bv1461 32))))
(let ((?x1209 (bvsdiv ?x692 (_ bv365 32))))
(let ((?x4312 (ite (bvsle (_ bv4 32) ?x1209) (_ bv3 32) ?x1209)))
(let ((?x19642 (bvadd (bvadd (bvmul (bvsdiv ?x2312 (_ bv146097 32)) (_ bv400 32)) (bvmul ?x24617 (_ bv100 32))) (bvmul (bvsdiv ?x28917 (_ bv1461 32)) (_ bv4 32)))))
(let ((?x4348 (bvadd (bvadd ?x19642 ?x4312) (_ bv1 32))))
(let (($x4178 (or (and (= (bvsmod ?x4348 (_ bv4 32)) (_ bv0 32)) (and (distinct (bvsmod ?x4348 (_ bv100 32)) (_ bv0 32)) true)) (= (bvsmod ?x4348 (_ bv400 32)) (_ bv0 32)))))
(let ((?x3157 (bvsub ?x692 (bvmul ?x4312 (_ bv365 32)))))
(let ((?x22285 (ite $x4178 (_ bv31 32) (_ bv31 32))))
(let (($x22193 (bvsge ?x3157 ?x22285)))
(let ((?x2778 (ite $x22193 (bvadd (bvsub ?x3157 ?x22285) (_ bv1 32)) (bvadd (bvsub ?x3157 (ite $x4178 (_ bv0 32) (_ bv0 32))) (_ bv1 32)))))
(let ((?x21153 (ite $x4178 (_ bv60 32) (_ bv59 32))))
(let (($x16189 (bvsge ?x3157 ?x21153)))
(let ((?x16411 (ite $x4178 (_ bv91 32) (_ bv90 32))))
(let (($x21222 (bvsge ?x3157 ?x16411)))
(let ((?x4011 (ite $x21222 (bvadd (bvsub ?x3157 ?x16411) (_ bv1 32)) (ite $x16189 (bvadd (bvsub ?x3157 ?x21153) (_ bv1 32)) ?x2778))))
(let ((?x16840 (ite $x4178 (_ bv121 32) (_ bv120 32))))
(let (($x21151 (bvsge ?x3157 ?x16840)))
(let ((?x566 (ite $x4178 (_ bv152 32) (_ bv151 32))))
(let (($x34468 (bvsge ?x3157 ?x566)))
(let ((?x3952 (ite $x34468 (bvadd (bvsub ?x3157 ?x566) (_ bv1 32)) (ite $x21151 (bvadd (bvsub ?x3157 ?x16840) (_ bv1 32)) ?x4011))))
(let ((?x4594 (ite $x4178 (_ bv182 32) (_ bv181 32))))
(let (($x33988 (bvsge ?x3157 ?x4594)))
(let ((?x3963 (ite $x4178 (_ bv213 32) (_ bv212 32))))
(let (($x34319 (bvsge ?x3157 ?x3963)))
(let ((?x28544 (ite $x34319 (bvadd (bvsub ?x3157 ?x3963) (_ bv1 32)) (ite $x33988 (bvadd (bvsub ?x3157 ?x4594) (_ bv1 32)) ?x3952))))
(let ((?x605 (ite $x4178 (_ bv244 32) (_ bv243 32))))
(let (($x21521 (bvsge ?x3157 ?x605)))
(let ((?x4124 (ite $x4178 (_ bv274 32) (_ bv273 32))))
(let (($x16938 (bvsge ?x3157 ?x4124)))
(let ((?x2426 (ite $x16938 (bvadd (bvsub ?x3157 ?x4124) (_ bv1 32)) (ite $x21521 (bvadd (bvsub ?x3157 ?x605) (_ bv1 32)) ?x28544))))
(let ((?x22055 (ite $x4178 (_ bv305 32) (_ bv304 32))))
(let (($x21381 (bvsge ?x3157 ?x22055)))
(let ((?x26299 (ite $x4178 (_ bv335 32) (_ bv334 32))))
(let (($x17054 (bvsge ?x3157 ?x26299)))
(let ((?x29115 (ite $x17054 (bvadd (bvsub ?x3157 ?x26299) (_ bv1 32)) (ite $x21381 (bvadd (bvsub ?x3157 ?x22055) (_ bv1 32)) ?x2426))))
(let (($x65417 (= (_ bv0 32) (_ bv0 32))))
(let (($x18817 (and (= (bvsmod (ite $x65417 ?x6342 ?x4348) (_ bv4 32)) (_ bv0 32)) (and (distinct (bvsmod (ite $x65417 ?x6342 ?x4348) (_ bv100 32)) (_ bv0 32)) true))))
(let (($x6009 (or $x18817 (= (bvsmod (ite $x65417 ?x6342 ?x4348) (_ bv400 32)) (_ bv0 32)))))
(let ((?x6860 (ite $x34468 (_ bv6 32) (ite $x21151 (_ bv5 32) (ite $x21222 (_ bv4 32) (ite $x16189 (_ bv3 32) (ite $x22193 (_ bv2 32) (_ bv1 32))))))))
(let ((?x32418 (ite $x21381 (_ bv11 32) (ite $x16938 (_ bv10 32) (ite $x21521 (_ bv9 32) (ite $x34319 (_ bv8 32) (ite $x33988 (_ bv7 32) ?x6860)))))))
(let ((?x34711 (ite $x65417 ?x1995 (ite $x17054 (_ bv12 32) ?x32418))))
(let ((?x21191 (ite (= (_ bv2 32) ?x34711) (ite $x6009 (_ bv31 32) (_ bv31 32)) (ite (= (_ bv1 32) ?x34711) (ite $x6009 (_ bv0 32) (_ bv0 32)) (_ bv0 32)))))
(let ((?x59874 (ite (= (_ bv4 32) ?x34711) (ite $x6009 (_ bv91 32) (_ bv90 32)) (ite (= (_ bv3 32) ?x34711) (ite $x6009 (_ bv60 32) (_ bv59 32)) ?x21191))))
(let ((?x60067 (ite (= (_ bv6 32) ?x34711) (ite $x6009 (_ bv152 32) (_ bv151 32)) (ite (= (_ bv5 32) ?x34711) (ite $x6009 (_ bv121 32) (_ bv120 32)) ?x59874))))
(let ((?x26904 (ite (= (_ bv8 32) ?x34711) (ite $x6009 (_ bv213 32) (_ bv212 32)) (ite (= (_ bv7 32) ?x34711) (ite $x6009 (_ bv182 32) (_ bv181 32)) ?x60067))))
(let ((?x42700 (ite (= (_ bv10 32) ?x34711) (ite $x6009 (_ bv274 32) (_ bv273 32)) (ite (= (_ bv9 32) ?x34711) (ite $x6009 (_ bv244 32) (_ bv243 32)) ?x26904))))
(let ((?x16306 (ite (= (_ bv12 32) ?x34711) (ite $x6009 (_ bv335 32) (_ bv334 32)) (ite (= (_ bv11 32) ?x34711) (ite $x6009 (_ bv305 32) (_ bv304 32)) ?x42700))))
(let ((?x20650 (bvadd (bvmul (_ bv365 32) (bvsub (ite $x65417 ?x6342 ?x4348) (_ bv1 32))) (bvsdiv (bvsub (ite $x65417 ?x6342 ?x4348) (_ bv1 32)) (_ bv4 32)))))
(let ((?x21915 (bvadd (bvsub ?x20650 (bvsdiv (bvsub (ite $x65417 ?x6342 ?x4348) (_ bv1 32)) (_ bv100 32))) (bvsdiv (bvsub (ite $x65417 ?x6342 ?x4348) (_ bv1 32)) (_ bv400 32)))))
(let ((?x31925 (bvsub (bvadd (bvadd ?x21915 ?x16306) (bvsub (ite $x65417 ?x6380 ?x29115) (_ bv1 32))) (_ bv730179 32))))
(= ?x31925 (_ bv6938 32)))))))))))))))))))))))))))))))))))))))))))))))))))))))))))))))))))))))))))))))))))))))))))))))))))))))))))))))))))))))))
(check-sat)
